0 0 0 0
0 1 0 0
0 2 0 0
0 3 0 0
0 4 1 3
0 5 0 3
0 6 0 6
0 7 1 5
0 8 1 3
0 9 2 13
0 10 2 6
0 11 0 13
0 12 0 8
0 13 0 18
0 14 2 11
0 15 0 22
0 16 0 5
0 17 2 14
0 18 1 14
0 19 2 5
0 20 1 24
0 21 2 21
0 22 2 23
0 23 1 30
0 24 0 25
0 25 0 23
0 26 0 30
0 27 0 24
0 28 0 30
0 29 0 32
0 30 0 36
0 31 0 39
